! Touchstone file exported from HFSS 2024.1.0
!        File:           /home/ubuntu/Ansoft/repo/array_8_2GHz/a14.aedt
!        Generated:      06:33:14 AM Apr 30, 2025
!        Design:         HFSSDesign1
!        Project:        a14
!        Setup:          setup
!        Solution:       sweep
!
# GHz S MA R 50.000000
! Terminal data exported
! Port[1] = t1
7                              0.275334999157805 -92.6086938471409 
! Gamma         0.103805766213099 212.469347888141 
! Port Impedance         50               0                
7.04                           0.258786155938383 -105.330824177535 
! Gamma         0.104381982102993 213.68306958842  
! Port Impedance         50               0                
7.08                           0.24107728177439 -119.164110938231 
! Gamma         0.10495800448428 214.896789093441 
! Port Impedance         50               0                
7.1                            0.230978405734513 -126.97603567967 
! Gamma         0.105245943109814 215.503648026637 
! Port Impedance         50               0                
7.12                           0.219382425184484 -135.648112920624 
! Gamma         0.105533833358961 216.110506415715 
! Port Impedance         50               0                
7.16                           0.190300539602497 -156.560270845489 
! Gamma         0.106109468729188 217.324221567666 
! Port Impedance         50               0                
7.2                            0.153376040852253 174.810601839135 
! Gamma         0.106684910597181 218.537934561559 
! Port Impedance         50               0                
7.24                           0.115206157970207 131.999321308267 
! Gamma         0.107260158965309 219.751645409497 
! Port Impedance         50               0                
7.28                           0.0971968727421968 75.4090964633126 
! Gamma         0.10783521383607 220.965354123511 
! Port Impedance         50               0                
7.3                            0.101809908111434 50.8175786922227 
! Gamma         0.108122668710739 221.572207683995 
! Port Impedance         50               0                
7.32                           0.114489118650377 31.571014685875  
! Gamma         0.108410075212042 222.179060715457 
! Port Impedance         50               0                
7.36                           0.149855370394364 2.46877691060022 
! Gamma         0.108984743095937 223.392765197069 
! Port Impedance         50               0                
7.4                            0.178546636595622 -16.9639115486646 
! Gamma         0.109559217490598 224.606467579969 
! Port Impedance         50               0                
7.44                           0.222323727758124 -30.3371798810422 
! Gamma         0.110133498398939 225.820167875627 
! Port Impedance         50               0                
7.48                           0.262402721730936 -48.7245507204506 
! Gamma         0.110707585824025 227.03386609542  
! Port Impedance         50               0                
7.5                            0.272044512517482 -57.2247364552984 
! Gamma         0.110994556981345 227.640714430386 
! Port Impedance         50               0                
7.52                           0.278924231677311 -65.0865858386171 
! Gamma         0.11128147976904 228.247562250571 
! Port Impedance         50               0                
7.56                           0.282021945480402 -80.3884989297933 
! Gamma         0.111855180237226 229.461256352239 
! Port Impedance         50               0                
7.575                          0.277806674801835 -85.8180013698624 
! Gamma         0.112070268032733 229.916391113191 
! Port Impedance         50               0                
7.6                            0.264463906078777 -93.8330977145868 
! Gamma         0.11242868723197 230.674948411402 
! Port Impedance         50               0                
7.64                           0.236904095026887 -102.215784961565 
! Gamma         0.11300200075676 231.888638438967 
! Port Impedance         50               0                
7.65                           0.231308353843033 -103.413795932458 
! Gamma         0.11314529890871 232.192060629689 
! Port Impedance         50               0                
7.68                           0.221539511420198 -105.933046919701 
! Gamma         0.113575120815206 233.102326445699 
! Port Impedance         50               0                
7.7                            0.220355803536136 -107.685849362205 
! Gamma         0.113861608295701 233.709169694589 
! Port Impedance         50               0                
7.72                           0.221402188986542 -110.088112812749 
! Gamma         0.114148047411011 234.316012442275 
! Port Impedance         50               0                
7.725                          0.221773133652933 -110.805513410277 
! Gamma         0.114219649632832 234.46772305103  
! Port Impedance         50               0                
7.76                           0.223049152820914 -116.925086117512 
! Gamma         0.114720780547962 235.529696439244 
! Port Impedance         50               0                
7.8                            0.218400452361938 -125.374571306105 
! Gamma         0.115293320229987 236.743378447071 
! Port Impedance         50               0                
7.84                           0.205984771732355 -134.352109731418 
! Gamma         0.115865666461097 237.957058476082 
! Port Impedance         50               0                
7.875                          0.189194794860355 -142.041321820562 
! Gamma         0.116366310726354 239.019026886284 
! Port Impedance         50               0                
7.88                           0.186406529123953 -143.095903117926 
! Gamma         0.116437819245409 239.170736536517 
! Port Impedance         50               0                
7.9                            0.174449672904909 -147.142769735041 
! Gamma         0.116723823096344 239.777574831709 
! Port Impedance         50               0                
7.92                           0.161443074450931 -150.836291036974 
! Gamma         0.117009778587149 240.384412638538 
! Port Impedance         50               0                
7.95                           0.140685731631212 -155.452293734899 
! Gamma         0.117438621149365 241.294668435865 
! Port Impedance         50               0                
7.96                           0.133601685499268 -156.671017443275 
! Gamma         0.117581544490632 241.59808679215  
! Port Impedance         50               0                
8                              0.105618503799823 -159.243338596158 
! Gamma         0.118153116960283 242.811759007287 
! Port Impedance         50               0                
8.025                          0.0894699781989492 -158.181686769888 
! Gamma         0.118510251527691 243.570303161731 
! Port Impedance         50               0                
8.04                           0.0807995309800902 -156.147993356857 
! Gamma         0.118724496000608 244.025429293774 
! Port Impedance         50               0                
8.08                           0.0640695354482618 -144.36647002225 
! Gamma         0.119295681616243 245.239097661392 
! Port Impedance         50               0                
8.1                            0.0605934265295575 -135.559113261817 
! Gamma         0.119581201891285 245.84593112861  
! Port Impedance         50               0                
8.12                           0.0608103522873953 -126.539048133443 
! Gamma         0.119866673811912 246.452764119737 
! Port Impedance         50               0                
8.16                           0.0698092591918567 -113.522273055125 
! Gamma         0.120437472592412 247.666428678373 
! Port Impedance         50               0                
8.175                          0.0748577593328168 -110.925994871646 
! Gamma         0.120651472271244 248.121552400023 
! Port Impedance         50               0                
8.2                            0.0838887032385497 -108.867179485968 
! Gamma         0.121008077962643 248.880091346766 
! Port Impedance         50               0                
8.24                           0.0977090956725412 -109.563175984157 
! Gamma         0.121578489927645 250.093752134263 
! Port Impedance         50               0                
8.25                           0.100788330622392 -110.229399446933 
! Gamma         0.121721062699928 250.397167038342 
! Port Impedance         50               0                
8.28                           0.108765972205922 -112.920007182053 
! Gamma         0.122148708492512 251.307411050146 
! Port Impedance         50               0                
8.3                            0.112928985325514 -115.075634388119 
! Gamma         0.122433745251494 251.914239809101 
! Port Impedance         50               0                
8.32                           0.116135925963695 -117.364095621966 
! Gamma         0.122718733662407 252.521068103598 
! Port Impedance         50               0                
8.325                          0.116790569610264 -117.944202040951 
! Gamma         0.122789973210826 252.672775104767 
! Port Impedance         50               0                
8.36                           0.119837970934764 -121.936061160317 
! Gamma         0.123288565442651 253.734723303701 
! Port Impedance         50               0                
8.4                            0.120608996952638 -125.987475875112 
! Gamma         0.123858203838629 254.948376659482 
! Port Impedance         50               0                
8.44                           0.119788072509662 -129.111083437103 
! Gamma         0.124427648855784 256.162028179869 
! Port Impedance         50               0                
8.475                          0.119121117179489 -131.022530443024 
! Gamma         0.124925754619141 257.223971761549 
! Port Impedance         50               0                
8.48                           0.11910386914169 -131.244992549181 
! Gamma         0.124996900499719 257.375677873682 
! Port Impedance         50               0                
8.5                            0.11935034303301 -132.058801491739 
! Gamma         0.12528145380849 257.982502038379 
! Port Impedance         50               0                
8.52                           0.120206902781081 -132.835610177825 
! Gamma         0.12556595877608 258.5893257497   
! Port Impedance         50               0                
8.55                           0.122791622649121 -134.216918607581 
! Gamma         0.125992625589327 259.499560469007 
! Port Impedance         50               0                
8.56                           0.123994167322689 -134.802284345482 
! Gamma         0.1261348236906  259.802971816594 
! Port Impedance         50               0                
8.6                            0.130138018201792 -138.151367962241 
! Gamma         0.126703495249142 261.016616082958 
! Port Impedance         50               0                
8.625                          0.134572601767847 -141.261487154608 
! Gamma         0.127058816787272 261.77514283889  
! Port Impedance         50               0                
8.64                           0.137218701744078 -143.548069643776 
! Gamma         0.12727197345762 262.230258557311 
! Port Impedance         50               0                
8.68                           0.143303781914766 -151.233848107749 
! Gamma         0.127840258322035 263.443899248084 
! Port Impedance         50               0                
8.7                            0.145375183550147 -155.943584132213 
! Gamma         0.128124328252146 264.050718927252 
! Port Impedance         50               0                
8.72                           0.146525226895917 -161.231028487842 
! Gamma         0.128408349848531 264.657538163662 
! Port Impedance         50               0                
8.76                           0.14545595087754 -173.589108687639 
! Gamma         0.128976248043268 265.871175312296 
! Port Impedance         50               0                
8.775                          0.143771994385442 -178.877302443083 
! Gamma         0.129189160024236 266.326288789176 
! Port Impedance         50               0                
8.8                            0.139367245138083 171.414669016608 
! Gamma         0.129543952912534 267.08481070221  
! Port Impedance         50               0                
8.84                           0.128551034228383 153.073225185437 
! Gamma         0.130111464462698 268.298444341559 
! Port Impedance         50               0                
8.85                           0.125285107156336 147.82197468272  
! Gamma         0.130253312144889 268.601852478818 
! Port Impedance         50               0                
8.88                           0.114944887279264 130.02475371121  
! Gamma         0.130678782700208 269.512076238392 
! Port Impedance         50               0                
8.9                            0.108420772968092 116.146089139113 
! Gamma         0.130962369328756 270.118891535872 
! Port Impedance         50               0                
8.92                           0.103236458988413 100.458969503371 
! Gamma         0.131245907631599 270.725706400697 
! Port Impedance         50               0                
8.925                          0.102277188984819 96.2595791331975 
! Gamma         0.131316784656526 270.877410049427 
! Port Impedance         50               0                
8.96                           0.101225819029663 64.6043662626044 
! Gamma         0.13181283926351 271.93933483641  
! Port Impedance         50               0                
9                              0.114989741551794 28.2439745045279 
! Gamma         0.132379577602619 273.152961553351 
! Port Impedance         50               0                
