! 6/17/2000 8:19:18 PM
! C:\DOCUMENTS AND SETTINGS\VECTORSTARUSER\DESKTOP\250430\ARRAY_8_2GHZ.S2P
! CHANNEL.1
! TR.MEASUREMENT
! CORRECTED.DATA
# HZ S DB R 50.0
! FREQ.HZ         S11DB        S11A          S21DB        S21A          S12DB        S12A          S22DB        S22A
    7000000000   -12.0782400  143.1806000   -91.2119800  -77.7605100   -98.2038100 -142.8448000    -9.1515570   23.8273600
    7004000000   -12.2716100  142.5235000   -86.5980600  -15.7479700   -95.9575300   -4.5849180    -9.1369910   10.9700800
    7008000000   -12.4697200  141.8906000   -89.0064600  117.8728000   -90.1321300 -112.2809000    -9.0389610   -1.8805780
    7012000000   -12.6764000  141.2359000   -84.5345600   58.0852900   -93.8570000  109.4625000    -8.8702380  -14.5390700
    7016000000   -12.8877900  140.6550000   -95.0744800  102.8832000   -87.3944100    5.3227710    -8.6533370  -26.9588600
    7020000000   -13.0953900  140.1150000   -88.2714100  -81.8437400   -89.4077800  -20.8555700    -8.4059760  -39.0195000
    7024000000   -13.3233900  139.6250000   -92.3312100   33.1459000   -93.6774900   71.5650200    -8.1370120  -50.6408300
    7028000000   -13.5507400  139.1604000   -92.1367600  -89.8064800   -91.8927800   50.2609100    -7.8765750  -61.7502000
    7032000000   -13.7953600  138.6734000   -97.0452700 -116.6416000   -96.6333500  -15.4639900    -7.6272600  -72.4452100
    7036000000   -14.0497400  138.2759000   -91.0395800 -133.6254000   -94.0810500  161.2820000    -7.4027450  -82.7205400
    7040000000   -14.3146500  137.9327000   -93.2241200 -129.5361000   -91.7265000  -76.3342700    -7.2135850  -92.6469500
    7044000000   -14.5819700  137.6316000   -86.1140600  -33.3288900   -89.3840000   11.7122600    -7.0850580 -102.3874000
    7048000000   -14.8670300  137.4135000  -111.4306000   67.2886400   -93.6962500  -23.8930500   -12.0374200   46.2286800
    7052000000   -15.1528700  137.1745000   -84.2370100  -79.6027800   -93.4295500  142.8019000   -12.0735800   45.5667000
    7056000000   -15.4569000  137.1924000   -84.8241400  -23.6630400   -88.2837700  -44.6368000   -12.1163000   45.0054600
    7060000000   -15.7705800  137.0660000   -86.2873500   42.5717100   -97.6778900 -152.9160000   -12.1574500   44.3575700
    7064000000   -16.0830700  137.1228000   -86.5454300  -19.9365900  -100.8875000  -37.0376700   -12.2074800   43.6658700
    7068000000   -16.4234300  137.2529000   -94.4549900   83.9571500  -102.9785000    4.4358290   -12.2500400   43.0006900
    7072000000   -16.7757500  137.5428000   -83.7006500  -40.7487100   -94.9931500 -124.8641000   -12.2949400   42.4314000
    7076000000   -17.1300400  137.9187000   -88.3779100  -75.2082200  -102.4103000  -48.6021400   -12.3311300   41.8076900
    7080000000   -17.5069000  138.4181000   -95.5969900  154.5569000   -88.8843900    3.2732470   -12.3813400   41.2527200
    7084000000   -17.8974900  139.0794000   -92.6666000  -39.7182700   -87.8746300 -102.6952000   -12.4298900   40.4809600
    7088000000   -18.2903800  139.9095000  -102.3624000 -144.5386000   -88.2147900  -56.9614100   -12.4747400   39.8105100
    7092000000   -18.6978300  140.8862000   -86.0904300  -59.5064500   -87.2417100   54.5307800   -12.5255000   39.3261100
    7096000000   -19.1169300  142.1801000   -87.9868500  -90.3864400   -91.8526100  -20.6172900   -12.5721600   38.7482500
    7100000000   -19.5416300  143.5603000   -93.3101700    5.5995240   -91.7642100  -64.1718800   -12.6110100   38.0092300
    7104000000   -19.9651100  145.3366000   -91.7307100   59.0256400   -96.6583100  152.0802000   -12.6627700   37.5081300
    7108000000   -20.3860700  147.3853000   -90.7797300   19.2341500   -85.9672100 -122.5781000   -12.6914900   36.8995300
    7112000000   -20.8159700  149.6602000   -90.9081600   68.3690500   -88.4377900  171.2521000   -12.7423200   36.3016500
    7116000000   -21.2403500  152.4239000  -103.9340000  -35.0654000   -89.2010800 -133.0241000   -12.7867200   35.7306200
    7120000000   -21.6339800  155.4635000   -94.1491200 -138.3390000   -87.5565000  -20.5424400   -12.8299600   35.0187600
    7124000000   -21.9943700  159.0191000   -98.3551400  -29.4027300   -95.5170300   90.6708700   -12.8693100   34.3485600
    7128000000   -22.2935200  162.8925000   -93.5195000  -77.3389000   -83.4581900  -88.7043000   -12.9048900   33.8406900
    7132000000   -22.5439200  166.9247000   -85.0267100 -107.1344000  -102.3712000  -35.6101200   -12.9618500   33.2031900
    7136000000   -22.7280600  171.3941000   -88.5696900   14.9613500   -84.6064300 -171.5764000   -13.0014200   32.5714000
    7140000000   -22.8389900  175.9300000   -93.3304300  -25.6205800   -96.4433100  -71.9727000   -13.0596700   31.9512700
    7144000000   -22.8277100 -179.2750000   -90.8865700 -164.7243000   -85.7615700   44.2414500   -13.1123500   31.3646900
    7148000000   -22.7876100 -174.6041000  -101.8691000  141.7283000   -88.2728200  -73.3033300   -13.1395100   30.8379900
    7152000000   -22.6140000 -170.1183000   -98.1029400   56.6216200   -96.3541300 -105.7481000   -13.1962300   30.3398600
    7156000000   -22.3864000 -165.9211000   -91.3744000   36.8637000   -91.0707600  155.8336000   -13.2458000   29.6419400
    7160000000   -22.1015800 -161.9361000   -83.4360100 -141.3202000   -96.4489600 -153.5578000   -13.2967200   29.1907400
    7164000000   -21.7448900 -158.3902000   -84.1464400   99.3329200   -93.3270200  100.7214000   -13.3430600   28.6207300
    7168000000   -21.3634700 -155.1742000   -94.5951800   33.5532300   -89.5427700  -49.7119500   -13.3922900   27.9442200
    7172000000   -20.9573400 -152.3662000   -89.3073000    3.4899840   -92.7613400  -43.7612000   -13.4507400   27.4761600
    7176000000   -20.5253900 -149.9823000   -86.9956800 -163.7273000   -87.0153400  159.8265000   -13.5017000   26.9302000
    7180000000   -20.0976200 -147.7743000  -101.7657000   60.8609400   -99.8626000 -107.7682000   -13.5466500   26.3844900
    7184000000   -19.6747600 -145.9792000   -93.9021900   -0.3133455   -86.0781000  -65.1671100   -13.5990200   25.8676400
    7188000000   -19.2344800 -144.4055000  -104.0353000 -133.2601000   -89.5565000  145.1930000   -13.6405500   25.3056800
    7192000000   -18.8186100 -143.2361000   -98.2304100   60.2359700   -86.0339400  -92.9181200   -13.6910200   24.7818800
    7196000000   -18.4177300 -142.0620000   -91.4889100 -153.3205000   -90.0941400  -49.1781700   -13.7464800   24.2081400
    7200000000   -18.0170100 -141.2270000   -89.1240400  110.0614000   -89.6858700  -59.5268100   -13.8018700   23.6130100
    7204000000   -17.6376700 -140.5226000   -93.3351900 -154.3209000   -90.1902300   16.3615000   -13.8526400   23.0362200
    7208000000   -17.2671700 -140.0021000   -92.5894500 -123.4923000   -92.4791600  -51.9280100   -13.9012000   22.5713800
    7212000000   -16.9184800 -139.5322000   -94.8681800 -176.0359000   -92.2279100  122.2012000   -13.9497500   21.9355400
    7216000000   -16.5629600 -139.2628000  -106.7534000  -47.5776700   -89.6170900   86.8796100   -13.9945700   21.4278800
    7220000000   -16.2299000 -139.0286000   -99.3966000  -22.2913700   -87.1992000   87.9433900   -14.0426100   20.9203300
    7224000000   -15.9078100 -138.9677000   -86.4420800  118.4141000   -87.8898200  -63.8573500   -14.0921600   20.3544300
    7228000000   -15.6055500 -138.9689000  -103.8864000  -91.3544800   -97.5591200 -146.8565000   -14.1421300   19.7318200
    7232000000   -15.3058700 -139.0079000   -88.0294100  154.5507000   -88.6810600   72.4434300   -14.1851200   19.1903800
    7236000000   -15.0087300 -139.0919000   -87.2978700   41.6117100   -85.3547300  101.8838000   -14.2309100   18.6661800
    7240000000   -14.7447900 -139.2807000   -90.3550900  140.9583000  -104.6952000   95.3633100   -14.2600600   18.2735700
    7244000000   -14.4796200 -139.4967000   -95.5229200    9.9498540   -94.7237500  -35.3056800   -14.3101600   17.7933300
    7248000000   -14.2158600 -139.7658000   -91.2629100 -125.6563000   -99.6222800  153.0510000   -14.3565600   17.2153100
    7252000000   -13.9639100 -140.0857000   -87.5851400 -173.6063000   -93.7670800   16.7697700   -14.4019400   16.6909600
    7256000000   -13.7183100 -140.5036000   -99.8706800   95.4434500   -99.0326100  -82.4015700   -14.4583500   16.1735400
    7260000000   -13.4850000 -140.8687000   -86.6687900  103.8884000   -95.2751800 -122.3340000   -14.5069100   15.6730900
    7264000000   -13.2612200 -141.3597000  -101.5272000  -35.1910600   -87.8905900  132.0194000   -14.5471500   15.1601800
    7268000000   -13.0401800 -141.8848000   -87.4283200   84.4153500   -97.6572400  119.4491000   -14.6003100   14.6736400
    7272000000   -12.8317800 -142.3682000   -93.9916500 -109.0560000   -91.1508000   49.5226300   -14.6531900   14.1979700
    7276000000   -12.6248000 -142.8848000   -94.8370200 -162.7032000   -94.7660800  125.5758000   -14.7050500   13.6640600
    7280000000   -12.4272500 -143.4538000   -88.1662900  -27.4613400  -110.7680000  119.8838000   -14.7513500   13.1721100
    7284000000   -12.2327600 -144.0687000   -90.8133600 -156.1769000  -103.6255000  134.2398000   -14.8050100   12.7115800
    7288000000   -12.0449000 -144.6367000   -90.8472900   58.0680500   -92.0971800   33.5838000   -14.8488400   12.2324000
    7292000000   -11.8633800 -145.2826000  -103.9303000   78.7222500   -93.4413800 -177.9588000   -14.9030100   11.7540000
    7296000000   -11.6912400 -145.9617000   -93.4504000 -159.0527000   -91.3942700  150.7216000   -14.9555800   11.3478600
    7300000000   -11.5199500 -146.6048000   -89.5045400  -47.8819900   -89.8660400   98.1055900   -15.0033400   10.9023500
    7304000000   -11.3659200 -147.2822000  -100.8980000   58.6984900   -89.2130000  110.2784000   -15.0640400   10.4697900
    7308000000   -11.2107000 -148.0149000   -91.9145400  111.9034000   -88.2342200  146.7559000   -15.1244800   10.0502100
    7312000000   -11.0657300 -148.6591000   -93.5165700 -172.0010000   -92.9359000   67.8416700   -15.1745100    9.6166180
    7316000000   -10.9256200 -149.3695000   -95.5075800  105.2989000   -93.9642200   23.3013600   -15.2275000    9.1355400
    7320000000   -10.7815400 -150.0606000   -92.6821700  -51.7735300   -92.9515100  -57.0128300   -15.2804100    8.6677640
    7324000000   -10.6473400 -150.7491000   -87.3919000   63.2781100   -86.3613900 -129.8800000   -15.3395500    8.2238400
    7328000000   -10.5160900 -151.4845000   -96.7843600    6.5045890   -91.4183400 -171.7541000   -15.3882600    7.8278260
    7332000000   -10.3867500 -152.2177000   -88.0411800   58.8531300  -108.0539000  165.1863000   -15.4494300    7.3628040
    7336000000   -10.2623200 -152.9391000   -87.4724600  -16.2467400   -86.8201500   41.2409100   -15.5024300    6.9292550
    7340000000   -10.1465100 -153.6534000   -92.3159400 -135.0108000   -92.6357100  121.3553000   -15.5585100    6.5281490
    7344000000   -10.0293400 -154.3957000   -91.9128000   45.1282200  -103.2058000   95.8868800   -15.6099100    6.0733720
    7348000000    -9.9241100 -155.1651000   -98.7941300  -81.1303200   -85.9815500 -154.4544000   -15.6579600    5.6610720
    7352000000    -9.8150850 -155.9297000   -95.6213300    9.9396970   -94.2446500  -27.9634400   -15.7193200    5.2023600
    7356000000    -9.7129350 -156.6902000   -89.7848400   63.7373300  -102.2937000   89.7763200   -15.7614600    4.8333460
    7360000000    -9.6096340 -157.4462000   -97.7968200   16.3776900   -91.4937400  -50.4511600   -15.8104600    4.4213690
    7364000000    -9.5110410 -158.2437000   -87.3048000 -124.8588000   -98.3071300  -17.2116900   -15.8620400    3.9706860
    7368000000    -9.4130030 -159.0252000  -108.0968000 -145.8687000   -93.7858700   14.3312600   -15.9100600    3.6856040
    7372000000    -9.3254750 -159.7842000   -92.7431500   25.1018400   -88.4587900 -139.0666000   -15.9688500    3.3373290
    7376000000    -9.2329390 -160.6112000   -87.8831900  150.1281000   -91.4657600 -157.6686000   -16.0003100    2.8731160
    7380000000    -9.1474470 -161.3960000   -89.0258600 -114.7863000   -94.5783900  -88.6409100   -16.0513900    2.4554640
    7384000000    -9.0652450 -162.2285000   -92.3299500   68.0781300   -94.5769400   39.0578300   -16.1140400    2.1372740
    7388000000    -8.9841880 -163.0535000   -90.2095500  -68.7077300   -84.2314800  116.0074000   -16.1613600    1.6969260
    7392000000    -8.9058110 -163.8675000   -93.2835000 -164.6619000   -94.1905600 -129.2411000   -16.2082600    1.2708720
    7396000000    -8.8300290 -164.6845000   -97.8803700  -11.9573200   -92.4886900   35.9300400   -16.2562100    0.9086999
    7400000000    -8.7570290 -165.4982000   -91.4891000  -67.1420300   -86.4041000   46.4650000   -16.3205200    0.4521641
    7404000000    -8.6918600 -166.3390000   -91.2182200   82.2619200   -90.2950200   97.5593000   -16.3612200    0.1252088
    7408000000    -8.6276860 -167.1833000  -100.7389000 -139.1208000   -94.3304500   52.2571900   -16.4126600   -0.1674980
    7412000000    -8.5644530 -168.0183000   -86.9778300 -148.2579000   -90.9331900  -51.6414500   -16.4661200   -0.5369599
    7416000000    -8.5036950 -168.8382000   -93.0169500   52.6042400   -95.5503800   52.3809600   -16.5165000   -0.8466486
    7420000000    -8.4463480 -169.7024000   -90.9436000  -90.8821300   -88.9493400   64.0479000   -16.5632000   -1.1633690
    7424000000    -8.3954560 -170.5392000   -94.1277600 -172.2858000   -94.3647800  -57.7002100   -16.6148300   -1.5343100
    7428000000    -8.3372390 -171.3684000   -91.4661100  -67.6136300   -92.5070100   28.8414300   -16.6649000   -1.7640660
    7432000000    -8.2907860 -172.2036000   -93.4737500  -13.4265400   -91.3242000  -54.2942000   -16.7166000   -2.1227360
    7436000000    -8.2403810 -173.0263000   -91.6227000  109.8154000   -94.9518700   37.2649700   -16.7635500   -2.3882210
    7440000000    -8.2002440 -173.8654000   -89.4888500   83.8666500   -92.5307500  -68.1980200   -16.8047800   -2.8176860
    7444000000    -8.1529460 -174.6906000   -88.4524800   74.2287400   -87.5353200  137.2629000   -16.8610300   -3.0748890
    7448000000    -8.1100220 -175.5614000   -84.8762500 -145.7235000   -91.2573600   65.8543800   -16.9123900   -3.4065140
    7452000000    -8.0724090 -176.4133000   -89.1691000  -87.5468300   -90.2682400   49.3363200   -16.9615000   -3.7579340
    7456000000    -8.0329710 -177.2329000   -94.5160400  -67.5515700   -96.4484100 -117.2154000   -17.0133500   -4.0100610
    7460000000    -7.9972150 -178.0853000   -92.2867700  -48.1704800   -88.9403900  103.4151000   -17.0647400   -4.3683410
    7464000000    -7.9696560 -178.9417000   -94.0394300   80.1040300   -83.7339500  150.9071000   -17.1215100   -4.5940440
    7468000000    -7.9366280 -179.7946000   -90.6836100   38.6014800   -84.3098600   30.6798600   -17.1718900   -4.9165740
    7472000000    -7.9086140  179.3470000   -94.5311700 -161.5304000  -103.5540000 -118.6373000   -17.2154000   -5.2540460
    7476000000    -7.8819410  178.4701000   -93.7368900  -57.2677600   -94.6739900   48.5654200   -17.2657800   -5.5162020
    7480000000    -7.8539890  177.6154000   -90.4855300   50.0072100   -92.0376900  142.7877000   -17.3255700   -5.7039650
    7484000000    -7.8291740  176.7623000   -88.1987300   64.4936500   -81.8597900 -137.6162000   -17.3666700   -5.9174880
    7488000000    -7.8117060  175.8658000   -87.9934500  -48.6416700  -101.6953000  -37.4936100   -17.4093800   -6.2538330
    7492000000    -7.7903450  174.9988000  -112.5143000   73.2286600   -93.1117900  173.0779000   -17.4657600   -6.4515790
    7496000000    -7.7687020  174.1481000   -87.4533800 -163.4661000   -90.5633900   71.1618300   -17.4995300   -6.7646460
    7500000000    -7.7493240  173.2269000   -94.6870800 -145.2025000   -97.5977300  -11.9967600   -17.5517600   -7.0562270
    7504000000    -7.7326140  172.3486000   -84.2883300  -96.3260700   -86.2536500  -93.0453600   -17.6030700   -7.2684920
    7508000000    -7.7215000  171.4388000  -102.1187000 -121.5648000   -89.2514100  -31.1473100   -17.6479900   -7.5243120
    7512000000    -7.7113540  170.5408000  -106.6195000    4.7246760   -88.1457700 -112.3330000   -17.6946400   -7.7808980
    7516000000    -7.6981120  169.6315000   -89.2566000   85.8079500   -88.5719100  -68.8231400   -17.7438400   -7.9907050
    7520000000    -7.6950030  168.7178000   -92.4416400  -25.1445800   -84.9969900  -12.8774400   -17.7899400   -8.2407450
    7524000000    -7.6905780  167.7950000   -95.0509900 -138.1043000  -102.8010000  153.7494000   -17.8262800   -8.4013890
    7528000000    -7.6827510  166.8907000   -89.0500000  -89.9821200   -89.0146000  129.5876000   -17.8743700   -8.5601070
    7532000000    -7.6825100  165.9645000   -84.3196000  121.2987000   -97.1861300   48.4167300   -17.9251200   -8.7703120
    7536000000    -7.6811290  165.0321000   -94.3216900  111.5530000   -95.7395100  159.4996000   -17.9527300   -8.8901070
    7540000000    -7.6802970  164.1065000   -99.5860400   90.6445900   -89.5843900  -54.7163500   -17.9995900   -9.1064830
    7544000000    -7.6902630  163.2052000   -85.9538600  -47.6654400   -95.3761900   51.3901300   -18.0392200   -9.2715140
    7548000000    -7.6958840  162.2271000   -91.6025500   41.1542900   -99.3699600  -59.5570100   -18.0781800   -9.4292010
    7552000000    -7.7021040  161.2655000   -90.3686900   13.5871800   -87.7557500  -32.7680500   -18.1132300   -9.5972600
    7556000000    -7.7146100  160.3166000   -92.5415800  -55.7374300   -87.1724700   41.2661900   -18.1629200   -9.7998000
    7560000000    -7.7269540  159.3346000   -98.3032100   27.5801800   -90.1835300    0.2119951   -18.2098800   -9.9390660
    7564000000    -7.7426740  158.4001000  -103.0152000  -88.3403500   -94.3275000 -156.8728000   -18.2546000  -10.1536500
    7568000000    -7.7545350  157.3866000   -96.8833600   96.1617200   -86.8482400 -102.4087000   -18.3013100  -10.3609300
    7572000000    -7.7714860  156.3877000   -90.5430900  141.1213000   -95.6494800  -61.0601800   -18.3433400  -10.5343800
    7576000000    -7.7890790  155.3968000   -85.4179500   60.5074300   -87.4255500  143.8600000   -18.3788100  -10.6629700
    7580000000    -7.8126450  154.3771000   -88.2005700  153.7847000   -96.6483000   46.8448700   -18.4286500  -10.7776700
    7584000000    -7.8408550  153.2910000   -90.5836100 -178.2309000   -84.3677200 -111.6863000   -18.4638900  -10.9159300
    7588000000    -7.8679680  152.2653000   -84.3933000  112.3644000   -93.7992900   33.4339200   -18.5174500  -11.0386100
    7592000000    -7.9028190  151.1655000   -86.3573800  179.1189000   -89.3916200  -74.1155300   -18.5447400  -11.2019800
    7596000000    -7.9401560  150.0987000   -92.5862100    4.6070410   -90.2611200   87.0147100   -18.5752200  -11.3290900
    7600000000    -7.9747880  149.0033000   -94.1095900  -61.2635200   -95.0378800  166.2822000   -18.6046400  -11.3760100
    7604000000    -8.0139500  147.8947000   -96.0227800 -102.1486000   -87.9768200  -40.1790400   -18.6476700  -11.3602200
    7608000000    -8.0620250  146.7336000   -90.4610700  167.9150000   -87.5658300 -174.6002000   -18.6738400  -11.5467600
    7612000000    -8.1087280  145.5946000   -90.3458900   17.9940300   -89.9456200   69.3218800   -18.7134200  -11.6307700
    7616000000    -8.1658020  144.4367000   -84.8834600  -20.1893800  -106.3579000  -76.7189600   -18.7385400  -11.7566000
    7620000000    -8.2275810  143.2642000   -93.7293200  -42.4426100   -92.1574600  102.4373000   -18.7654200  -11.8172600
    7624000000    -8.2847530  142.0761000   -89.7607900  135.6065000   -98.4981400  -69.2239500   -18.7989800  -11.9362100
    7628000000    -8.3542930  140.8384000   -90.4786300  -98.7701900   -99.3665200  104.9707000   -18.8335300  -12.0510900
    7632000000    -8.4244660  139.6358000   -88.9003900  -84.7206400   -85.9082600  -12.7112400   -18.8663600  -12.2146700
    7636000000    -8.4973490  138.3992000   -93.1021400   52.4700300  -103.2003000  128.9128000   -18.9011700  -12.3326900
    7640000000    -8.5819020  137.1650000   -90.7834500  -78.0163800   -98.2297900   49.2356400   -18.9352100  -12.3572600
    7644000000    -8.6650330  135.8865000   -96.2357900   40.9346900   -94.9037100 -156.3198000   -18.9689800  -12.4678700
    7648000000    -8.7541410  134.5328000   -92.4820000  150.3807000  -105.5846000 -169.7433000   -19.0005900  -12.5832400
    7652000000    -8.8654960  133.2412000   -94.5759200 -162.7021000   -93.4986000   93.9629500   -19.0284700  -12.6598100
    7656000000    -8.9735290  131.8806000   -87.8907900   20.8016200   -95.2109100 -174.6794000   -19.0584000  -12.7896900
    7660000000    -9.0922530  130.4884000   -98.6267500  -75.1000300   -96.2642500  -88.0530200   -19.0946500  -12.7707000
    7664000000    -9.2153740  129.1097000   -94.0066500  -41.1420600  -109.7624000 -171.1369000   -19.1077100  -12.8594200
    7668000000    -9.3497200  127.6873000  -105.7015000    1.5810630   -88.9820700  -54.7902900   -19.1220300  -12.9241800
    7672000000    -9.4993650  126.2031000   -87.2693700 -144.7517000   -95.5417000  134.1648000   -19.1361400  -13.0062100
    7676000000    -9.6622070  124.7554000  -104.9027000  141.8524000   -89.5488700  -72.0549600   -19.1628600  -13.0173500
    7680000000    -9.8341840  123.2863000   -91.0028500   80.3677900   -96.5267500  -74.8523400   -19.1688600  -13.1210800
    7684000000   -10.0195000  121.7583000   -99.1184500  -17.6739900   -89.4681900 -173.0258000   -19.1829100  -13.1997600
    7688000000   -10.2186600  120.2575000   -91.7723200  -30.4259600   -94.0870700  146.2970000   -19.2024300  -13.2375100
    7692000000   -10.4319100  118.7530000   -85.7888400 -125.9285000   -97.0676000   38.5894000   -19.2201400  -13.3666900
    7696000000   -10.6715700  117.2397000   -86.3859900  142.0470000   -92.7051500 -101.5723000   -19.2367100  -13.3831400
    7700000000   -10.9189300  115.6989000  -108.1918000  108.9886000   -86.2390700   11.4184400   -19.2412500  -13.4097100
    7704000000   -11.1861400  114.1803000   -87.9129800 -149.2535000   -85.7761800  108.1926000   -19.2551700  -13.4801300
    7708000000   -11.4821700  112.6661000  -103.9961000  -35.2795100   -84.5087900  172.3082000   -19.2734300  -13.5094500
    7712000000   -11.7932800  111.1829000   -94.7172400   54.0122200   -90.7929200 -175.7548000   -19.2812100  -13.5314500
    7716000000   -12.1207400  109.7869000   -97.1448100  141.6738000   -95.7867700  -70.6456200   -19.2909900  -13.5263400
    7720000000   -12.4842200  108.3887000  -109.5049000  109.5087000   -90.4383500   30.6291500   -19.3033700  -13.5577800
    7724000000   -12.8633300  107.0600000   -92.7225400   -1.9946650   -95.5219300  -62.4167500   -19.3148100  -13.5908000
    7728000000   -13.2705700  105.7287000   -88.4607800  -99.1141900   -89.0896900  150.6823000   -19.3197700  -13.6171000
    7732000000   -13.7088800  104.5606000   -93.0435600  -13.6071700   -90.7168400  -27.9538700   -19.3220300  -13.6124500
    7736000000   -14.1748000  103.5058000   -93.6528200  -74.3825500  -101.0841000  -54.4372300   -19.3266300  -13.6104200
    7740000000   -14.6675500  102.5840000   -92.4916500   60.1933800   -90.8328700  -57.7664100   -19.3236300  -13.6869200
    7744000000   -15.1862100  101.8215000   -87.7729900   74.7820700   -85.8133100  -15.0792500   -19.3339900  -13.6719300
    7748000000   -15.7436300  101.1665000   -94.0081900   -8.5959520   -84.9325700   81.4540400   -19.3367300  -13.7381500
    7752000000   -16.3471900  100.6485000   -93.7881900 -118.9596000   -92.6025800  -19.1683100   -19.3361300  -13.7683900
    7756000000   -16.9907100  100.5114000   -96.2004500   -4.6634030   -94.8022500   89.6062300   -19.3459700  -13.7509200
    7760000000   -17.6710900  100.7020000   -89.4876900 -116.0009000   -86.7087100 -176.7841000   -19.3460400  -13.8583300
    7764000000   -18.3926500  101.2300000   -87.1540400 -142.5557000   -92.3479900   38.0070800   -19.3475900  -13.8304500
    7768000000   -19.1300200  102.0951000   -90.8555100  -70.0371900   -88.0343800  130.1208000   -19.3480600  -13.9220000
    7772000000   -19.9250800  103.5520000   -97.2551900  -44.5402600   -94.4951200  -17.7188000   -19.3544100  -13.9627400
    7776000000   -20.7432900  105.6389000   -90.8950100 -143.8257000   -98.0177500  -24.8210500   -19.3490000  -13.9800200
    7780000000   -21.5915300  108.4459000   -91.2161600   56.0655600   -98.5709100 -129.4523000   -19.3360900  -14.0237400
    7784000000   -22.4370700  112.3495000   -95.3640700   15.0650000   -92.0483200   83.6886100   -19.3332700  -14.0424900
    7788000000   -23.2506900  117.2262000   -88.4614000  145.6790000   -96.0835600   98.7270700   -19.3319900  -14.0652300
    7792000000   -23.9662600  123.0713000  -104.8991000  179.2661000  -100.2761000  -53.3041300   -19.3193300  -14.1078600
    7796000000   -24.6059600  130.2290000   -91.8988000   20.8576900   -93.0498200 -153.1560000   -19.3074500  -14.1776700
    7800000000   -24.9597300  138.5564000   -90.1623400 -173.5686000   -91.9741100  117.7175000   -19.2911900  -14.1951400
    7804000000   -25.0821200  146.9296000   -89.1595400 -142.6430000   -87.5416200  130.8053000   -19.2787200  -14.2727400
    7808000000   -24.9424400  154.9203000   -91.7801500 -143.2840000   -90.6097900   76.5135500   -19.2603700  -14.3017500
    7812000000   -24.6117600  162.4081000   -88.3776900  109.7858000   -87.6085600   16.4894100   -19.2517600  -14.3546400
    7816000000   -24.1111200  168.9324000   -91.7645300  165.2589000   -95.5228100   92.7937800   -19.2322000  -14.3731700
    7820000000   -23.4686800  174.3451000  -102.1334000  -29.9996800   -93.3411700   83.2872500   -19.2194800  -14.3632500
    7824000000   -22.7862500  178.3174000   -98.4755300 -170.3832000   -90.0871200  132.7873000   -19.2098200  -14.4182800
    7828000000   -22.1624600 -178.6431000  -112.7510000   52.6881900   -87.9250700  136.8752000   -19.1950300  -14.3959400
    7832000000   -21.5242400 -176.0810000  -112.1728000 -140.3344000   -90.3231800  175.5449000   -19.1804600  -14.4017100
    7836000000   -20.9170400 -174.4305000   -86.2866600 -114.4826000   -88.6784400  161.4371000   -19.1578300  -14.3860800
    7840000000   -20.3647000 -173.1203000   -90.9690100   76.7113800   -87.6119600 -166.2669000   -19.1443300  -14.4054500
    7844000000   -19.8542100 -172.2837000   -83.8113000  107.9362000   -88.0482900 -173.4504000   -19.1300400  -14.4169200
    7848000000   -19.3663100 -171.6874000   -90.1679600  -46.2881300   -91.2125900  -87.4198200   -19.1009500  -14.4263300
    7852000000   -18.9183100 -171.4293000  -100.4152000  167.3235000  -110.1044000  140.2060000   -19.0778400  -14.5035500
    7856000000   -18.5049400 -171.1699000  -120.0677000  -76.9861900   -92.3441200 -109.3101000   -19.0623500  -14.5273100
    7860000000   -18.1278600 -171.2533000   -94.8024800   -4.1560820  -100.8195000  -54.4230200   -19.0293700  -14.6335100
    7864000000   -17.7702200 -171.5187000   -97.6283200   94.7665400   -95.4208400  -48.2460100   -19.0072600  -14.7029700
    7868000000   -17.4376300 -171.7321000   -88.8824800  121.4215000   -92.6784600 -106.4614000   -18.9730300  -14.7971700
    7872000000   -17.1640200 -172.1020000   -84.8852800   60.8841500   -90.5582400  -94.2813900   -18.9503800  -14.8968100
    7876000000   -16.8764400 -172.5177000   -91.6529400   91.9394500  -101.6759000   89.3709900   -18.9240900  -14.9627600
    7880000000   -16.6182100 -173.0544000   -93.7009900 -164.8410000   -88.7907700  173.4249000   -18.8958900  -15.0701300
    7884000000   -16.3792300 -173.6439000  -100.6786000 -137.8063000  -105.3915000  130.3371000   -18.8762100  -15.1805600
    7888000000   -16.1691200 -174.2419000   -94.8108500   32.0551700   -93.1729000 -137.0951000   -18.8443600  -15.2570000
    7892000000   -15.9844700 -174.8875000   -87.7336100  -26.8376200   -88.4106400  -14.5575700   -18.8286900  -15.3524100
    7896000000   -15.8002100 -175.5185000   -97.1599400   28.2368400   -99.3156900  -37.4724100   -18.7839000  -15.2170500
    7900000000   -15.6401500 -176.2775000  -105.8276000 -106.9817000   -92.1493200   23.0132600   -18.7546600  -15.2866500
    7904000000   -15.5046800 -176.9954000   -87.8122300  -32.6932600   -94.3603700 -150.6479000   -18.7313400  -15.3383600
    7908000000   -15.3753300 -177.7108000   -88.8801000  -44.5273400   -87.8086100  172.8830000   -18.6964800  -15.4198200
    7912000000   -15.2758900 -178.4098000  -113.4426000  150.6345000   -93.2449300  133.3205000   -18.6758900  -15.4773800
    7916000000   -15.1925500 -179.0334000   -89.1469400   23.8238400   -97.1865200  105.3813000   -18.6490500  -15.5360700
    7920000000   -15.1096300 -179.7912000  -100.2049000  143.2088000   -95.1243900  116.8426000   -18.6146300  -15.6427800
    7924000000   -15.0494800  179.5630000   -94.0021900   66.0284300   -96.7411100 -127.5439000   -18.5879400  -15.6814900
    7928000000   -15.0016100  178.9726000   -88.6681500  -76.3771400   -87.1986500  -50.1885000   -18.5502000  -15.8231500
    7932000000   -14.9637300  178.4848000   -99.9734300  136.8025000  -114.4406000  -53.4906700   -18.5122700  -16.0237700
    7936000000   -14.9234500  178.0044000   -97.7921800 -153.6726000   -92.7687500  -14.6984600   -18.4822300  -16.1070700
    7940000000   -14.8903300  177.5655000   -91.5566700 -110.9796000   -93.4045800   57.2850100   -18.4460300  -16.3020800
    7944000000   -14.8784200  177.0372000   -91.9559100  141.4881000   -85.0970000 -154.0502000   -18.4079900  -16.3868200
    7948000000   -14.8713000  176.6225000  -108.4874000   34.1308300   -90.8384100  116.4703000   -18.3783300  -16.5210500
    7952000000   -14.8609600  176.3549000   -92.3777700   67.2968000   -90.0865000 -118.3366000   -18.3389500  -16.7382800
    7956000000   -14.8556400  176.0802000   -90.0420800  141.0767000   -86.9896300  -22.7183700   -18.2955500  -16.9089100
    7960000000   -14.8506600  175.8250000   -92.1237200   64.2760600   -90.7249100  -76.7944200   -18.2606000  -17.0034400
    7964000000   -14.8586500  175.6610000   -96.8843800  149.2188000   -90.4504700 -127.0104000   -18.2183600  -17.1726300
    7968000000   -14.8552300  175.5674000  -104.9687000  -12.0623000   -97.4691900  -25.7579000   -18.1784000  -17.3840000
    7972000000   -14.8466300  175.4628000   -87.1500700  128.0471000   -89.2678500  139.0519000   -18.1421100  -17.5369700
    7976000000   -14.8504500  175.5051000   -89.2113500  147.5118000   -95.1200000  149.3332000   -18.0845200  -17.6208200
    7980000000   -14.8326000  175.4496000   -88.6573800  -15.7622600   -88.3929400   39.5191200   -18.0498300  -17.8853100
    7984000000   -14.8153100  175.3701000   -92.9526600   61.6430400  -102.2709000  121.2118000   -18.0116200  -18.0268200
    7988000000   -14.8021900  175.3019000   -92.3175100   37.7505000   -88.3639100   10.0669400   -17.9653500  -18.2468900
    7992000000   -14.8049000  175.2494000   -89.4516100    2.0632020   -93.2574400   44.4365300   -17.9209200  -18.4644000
    7996000000   -14.8075500  175.4439000   -95.1709400   -7.1896560   -88.9087600    3.2120650   -17.8793700  -18.6488000
    8000000000   -14.7622500  175.6273000   -93.4903600  -26.1803800   -95.8975200   56.5244000   -17.8412000  -18.8841500
    8004000000   -14.7330500  175.6241000   -95.9353500   35.6188400   -88.8457900  138.0759000   -17.8005600  -19.0809900
    8008000000   -14.7095400  175.5840000   -97.0860400  -93.7658800   -96.4113000 -148.1157000   -17.7673100  -19.1770300
    8012000000   -14.7009400  175.6933000   -89.9649400  -82.5015900   -94.6706500  -23.5290100   -17.7273800  -19.3991700
    8016000000   -14.6697100  175.8712000   -93.0596600 -101.5945000   -89.6532400  108.3327000   -17.6854100  -19.5558900
    8020000000   -14.6102600  175.9940000   -92.0341500  -89.7916300   -87.2280300   -1.0738380   -17.6607600  -19.7437800
    8024000000   -14.5648000  175.9530000   -96.8439300   18.6889100   -89.0787200 -138.7423000   -17.6175100  -19.9080700
    8028000000   -14.5464800  175.9786000   -85.9594100    1.6796450  -102.7998000 -104.9632000   -17.5745200  -20.0249500
    8032000000   -14.5123100  176.1008000   -85.4620100  -69.5387600  -106.5807000   45.8799100   -17.5414600  -20.2849500
    8036000000   -14.4572100  176.3427000   -86.6768000  -55.2387800  -102.1737000  -16.4896900   -17.5000200  -20.4590800
    8040000000   -14.3835400  176.4313000   -92.9905700 -158.1757000   -89.5230900  -92.9983200   -17.4621100  -20.6188400
    8044000000   -14.3196600  176.3486000   -90.9477200  -68.7031300   -89.6140100   66.8527700   -17.4120800  -20.8831700
    8048000000   -14.2647800  176.3320000   -87.2026500  -63.6227600   -87.3326700  -75.9805800   -17.3641400  -21.0988400
    8052000000   -14.2004500  176.3105000   -85.2838800  -96.4566200   -88.3758900   51.4921800   -17.3173600  -21.2927700
    8056000000   -14.1259200  176.2516000   -90.7248800  176.8803000   -94.7124900   79.3886900   -17.2706900  -21.5471000
    8060000000   -14.0319400  176.1447000   -98.1887100 -122.5129000   -89.3808100   98.6692000   -17.2285600  -21.8166600
    8064000000   -13.9558500  175.9134000   -96.2461000 -110.6980000   -96.3886700  -65.7698400   -17.1811800  -22.0085100
    8068000000   -13.8796000  175.6285000   -90.2000000 -133.8403000   -86.5689500  147.3475000   -17.1402700  -22.2568600
    8072000000   -13.7928100  175.2442000   -85.4921900 -162.2558000   -90.3327100  -91.6601000   -17.0893500  -22.4559400
    8076000000   -13.7094500  174.8502000   -92.7430800 -117.7575000   -88.6310600   55.8441900   -17.0453100  -22.7450700
    8080000000   -13.6251700  174.2107000   -93.0369100   90.3855300  -100.8493000   39.2792700   -16.9985200  -22.9802300
    8084000000   -13.5542300  173.4426000   -84.6163100   10.5056700  -102.1149000  -70.8709600   -16.9612100  -23.2131700
    8088000000   -13.5176800  172.6646000   -99.4744900  144.0810000  -104.4322000  -96.9534500   -16.9143300  -23.4311700
    8092000000   -13.4899800  171.9750000   -89.3632000 -134.5231000   -90.3853900   86.5237700   -16.8674200  -23.7185200
    8096000000   -13.4732800  171.0760000   -98.2058300   92.6847800   -88.9554600 -139.7755000   -16.8257000  -24.0248800
    8100000000   -13.4922800  170.1815000   -85.8515300 -124.3603000   -92.9063100  -54.6252400   -16.7775000  -24.3617300
    8104000000   -13.5333300  169.3280000   -89.2903900  -75.1327100   -89.2223100  178.9685000   -16.7296100  -24.5671400
    8108000000   -13.6035200  168.5258000   -94.9676100   79.3063000   -99.3553500  161.4435000   -16.6927900  -24.8856300
    8112000000   -13.6865900  167.9111000  -102.8535000   73.5961500   -84.4721900  156.5471000   -16.6453000  -25.2152600
    8116000000   -13.7803100  167.3232000   -82.7205600  148.6067000  -104.0024000   21.6332500   -16.5961600  -25.4309700
    8120000000   -13.8795200  166.8324000   -83.4951600  -96.4065900   -97.7340200  159.1031000   -16.5577800  -25.7427200
    8124000000   -14.0143300  166.5225000   -92.6339600   80.4102200   -97.1299100  -50.9020800   -16.5257300  -26.0086900
    8128000000   -14.1539200  166.3440000   -86.4722800   45.3170500   -91.4841200  166.2277000   -16.4825000  -26.3381800
    8132000000   -14.2738700  166.4310000   -94.8320500  116.3284000   -94.2812500   51.8989900   -16.4395900  -26.6069500
    8136000000   -14.3747500  166.6614000  -101.1791000  -95.5441300   -93.2087600  -83.8850300   -16.3986300  -26.8525300
    8140000000   -14.4877500  166.8074000   -88.9096000 -173.3799000   -91.6548200   36.3288400   -16.3548500  -27.1853800
    8144000000   -14.5928400  167.1340000   -90.6784700 -119.5431000   -89.6667900   92.8717900   -16.3268500  -27.4612900
    8148000000   -14.6837600  167.6817000   -88.1076800  -72.2994200   -85.6036300   28.1699000   -16.2833200  -27.7744300
    8152000000   -14.7692400  168.2980000   -90.8338200  -33.2846300   -97.3584800  -46.3404800   -16.2378000  -28.0576200
    8156000000   -14.8091400  168.9501000   -98.2205700  -25.8319100   -93.6844800  -44.9413800   -16.1932200  -28.3512300
    8160000000   -14.8519500  169.4997000   -92.7577100  -30.0543100   -96.7154300 -171.6532000   -16.1433200  -28.6369200
    8164000000   -14.9002000  170.2219000   -86.9274400   -7.3112010   -92.0028000   -8.2565790   -16.1023900  -28.9744600
    8168000000   -14.9149500  170.9957000   -90.6094400 -172.4504000   -84.7733300  176.6873000   -16.0581900  -29.2724700
    8172000000   -14.9082000  171.7984000   -89.8561500  108.5964000   -95.7878500   77.5706300   -16.0122300  -29.5627600
    8176000000   -14.8738000  172.5720000   -91.4492200  -47.2575000   -87.1369000 -117.6766000   -15.9722100  -29.8942300
    8180000000   -14.8230000  173.2217000   -89.0829500  134.8054000   -85.9073700  161.9590000   -15.9217200  -30.2054400
    8184000000   -14.7709800  173.8051000   -90.0244300   23.6021500   -92.0110500  -38.6670900   -15.8790600  -30.4912700
    8188000000   -14.7092600  174.4551000   -94.6687900  123.7641000   -95.3595300  -32.4995000   -15.8381800  -30.8738600
    8192000000   -14.6340600  174.9522000   -92.6140300  161.4817000  -107.5819000 -154.9418000   -15.7951100  -31.1849400
    8196000000   -14.5533300  175.4207000   -90.4418100 -129.2193000   -86.8257000  -52.5970200   -15.7542700  -31.5070600
    8200000000   -14.4532700  175.9088000   -85.1191100  -57.1565400   -88.2792800  -59.0010900   -15.7150700  -31.8790200
    8204000000   -14.3413700  176.2942000   -90.9510000  -10.5094700   -90.2401400   30.7715400   -15.6697300  -32.1932900
    8208000000   -14.2367400  176.5738000  -110.9970000   71.4563900   -89.4371300 -106.0011000   -15.6293300  -32.5759000
    8212000000   -14.1138700  176.8642000   -88.1944600   -5.7264070   -96.7178200 -131.3733000   -15.5873500  -32.9437800
    8216000000   -13.9806300  177.0212000   -92.1426500  -52.7832900   -90.3679800  -56.1928700   -15.5471200  -33.3270300
    8220000000   -13.8415200  177.0853000   -82.9388500  -23.5215000   -94.2368200  -53.4681900   -15.4973400  -33.6431400
    8224000000   -13.7102700  177.0449000  -104.1817000  100.6663000   -87.2065800 -134.9915000   -15.4596200  -34.0644100
    8228000000   -13.5759800  176.9388000   -87.7427300   83.8466500   -96.9444600  154.3156000   -15.4193300  -34.4092900
    8232000000   -13.4456500  176.7657000   -85.0153200  158.5205000   -99.7272900  177.2854000   -15.3727500  -34.7710300
    8236000000   -13.3053300  176.5384000   -94.1109800   79.5673200   -91.5184900  104.1637000   -15.3319000  -35.1611900
    8240000000   -13.1515700  176.1613000   -95.0359000  167.4574000   -86.6272000   58.6575200   -15.2916400  -35.5061800
    8244000000   -13.0166900  175.6445000   -92.1891200   33.2891200   -92.6250100  159.3972000   -15.2595800  -35.9202300
    8248000000   -12.8813700  175.1226000   -93.0342800 -143.0954000   -97.2897200    6.1424890   -15.2147900  -36.2422800
    8252000000   -12.7466000  174.4351000   -97.3089100  -31.7748300  -107.7293000   97.6212700   -15.1741500  -36.6239100
    8256000000   -12.6218200  173.6681000   -90.6386600  170.5773000   -95.5754400  -47.1992100   -15.1285700  -37.0301200
    8260000000   -12.5004100  172.7532000   -86.8622700  142.0043000   -91.1363400   69.6774100   -15.0915200  -37.3695200
    8264000000   -12.3927600  171.7990000   -90.6923800    9.5835160   -85.0402700  141.2566000   -15.0469600  -37.7389900
    8268000000   -12.3007300  170.7872000   -97.8189200  146.3296000   -99.8401700  122.1403000   -15.0047200  -38.1430500
    8272000000   -12.2124300  169.7483000  -103.1852000 -162.7900000   -94.1691000  -85.2194700   -14.9671500  -38.4626000
    8276000000   -12.1244600  168.5255000   -88.9726600   22.3366400   -85.1444900  -36.0619300   -14.9297600  -38.8517700
    8280000000   -12.0630400  167.2205000   -87.9715000  -11.9442600   -98.5705600   -6.6953010   -14.8953600  -39.2687900
    8284000000   -12.0254700  165.8428000   -94.7368500    8.4056470   -93.6512400   16.5182000   -14.8562700  -39.6495800
    8288000000   -11.9992400  164.5372000  -108.7407000  163.9801000   -96.5293900  127.0946000   -14.8271800  -40.0544100
    8292000000   -11.9804800  163.0558000   -91.0641200  -97.9272500   -98.7024400  -32.4450500   -14.7851400  -40.4236300
    8296000000   -11.9782700  161.4974000   -99.0849200  124.3136000   -84.1725500   50.3617600   -14.7443500  -40.8014100
    8300000000   -12.0048800  159.9981000   -90.6826700   -2.1875140   -91.1269500 -116.0190000   -14.7127300  -41.1951100
    8304000000   -12.0541500  158.4614000   -89.2628400 -163.0780000   -95.1119200   55.5602400   -14.6687700  -41.6049300
    8308000000   -12.1182200  156.9491000   -93.9611700  -79.4330900  -102.9179000  -90.7639800   -14.6311100  -41.9658000
    8312000000   -12.2002400  155.4938000   -86.4981800 -117.6581000   -88.4193800    9.0757500   -14.5967400  -42.3688200
    8316000000   -12.2921100  153.9643000  -113.7006000 -169.9662000   -91.8832100  177.2397000   -14.5599100  -42.7559300
    8320000000   -12.4116900  152.4273000   -92.7506700  157.7817000   -98.7237400  143.3241000   -14.5199000  -43.1373600
    8324000000   -12.5491500  150.9535000   -96.4835300 -114.5281000   -92.7181200   43.4061700   -14.4757400  -43.5686900
    8328000000   -12.7103000  149.5279000   -85.5347300   76.2417500   -93.2385300  122.9909000   -14.4429200  -43.9411700
    8332000000   -12.8855200  148.1593000   -96.0440000  118.2767000   -93.5275300  107.6223000   -14.3947600  -44.3788700
    8336000000   -13.0742300  146.8469000  -123.1224000   12.5387500   -90.3721200  102.9477000   -14.3588600  -44.7689000
    8340000000   -13.2789200  145.6226000   -90.9813100  119.2613000   -94.2257700  110.3616000   -14.3185800  -45.1740000
    8344000000   -13.5135500  144.3635000   -90.9092700 -171.0051000   -96.9891700 -144.5594000   -14.2777800  -45.5740500
    8348000000   -13.7667800  143.2691000   -91.7830800   -2.8188170   -91.6484800   -3.4104350   -14.2445800  -45.9950100
    8352000000   -14.0298100  142.2941000   -96.5478400  -75.2307000   -89.5688300  115.2528000   -14.2068000  -46.4172200
    8356000000   -14.3010100  141.3901000   -90.3542400  -85.1891600   -91.4607400  109.5247000   -14.1689800  -46.8355100
    8360000000   -14.5989700  140.5643000   -97.7143200 -127.2185000   -96.3911800   78.9738500   -14.1307500  -47.2740300
    8364000000   -14.9107800  139.8561000   -92.4267600 -118.4157000   -85.4753700  -77.1935400   -14.0916300  -47.6372900
    8368000000   -15.2365000  139.2598000   -87.4821400   76.8236300   -88.4709500 -102.0088000   -14.0576100  -48.0886000
    8372000000   -15.5788100  138.8099000   -91.3147400 -164.7953000   -87.2351200  -50.9192000   -14.0234400  -48.5187600
    8376000000   -15.9287000  138.5160000   -84.6797900   49.7544000   -91.2128300  116.7317000   -13.9868800  -48.9694300
    8380000000   -16.2953900  138.3037000   -94.4680700  175.7980000   -89.2120400   67.3609200   -13.9473300  -49.3957900
    8384000000   -16.6759300  138.2449000   -86.7321800 -163.7620000   -96.1540100   80.8993000   -13.9160200  -49.8093800
    8388000000   -17.0604300  138.3831000  -103.6500000   -0.3050350   -88.2739200  -32.5335000   -13.8800900  -50.2583100
    8392000000   -17.4730500  138.7186000  -107.1786000   28.6620300   -89.6657500  -21.7475700   -13.8428200  -50.6945900
    8396000000   -17.8858400  139.2000000  -102.3102000 -151.8797000   -91.3853500  101.1071000   -13.8154400  -51.1896700
    8400000000   -18.3233900  139.9902000  -105.0010000  -16.2063700   -86.7790700   44.3356700   -13.7740400  -51.5968700
    8404000000   -18.7563400  140.8880000   -87.9891200  -51.3515000   -89.4879600  129.8752000   -13.7447000  -52.0605400
    8408000000   -19.1977300  142.1715000   -94.2965700 -103.8440000   -89.1677000   59.9888100   -13.7104000  -52.4644800
    8412000000   -19.6432400  143.6906000   -93.0359600   87.0610700   -89.8130800  -24.6358400   -13.6722100  -52.9329900
    8416000000   -20.0875100  145.6048000   -92.2780200  -91.4304400  -101.5565000  167.7119000   -13.6378900  -53.3644900
    8420000000   -20.5392100  147.8534000   -94.9899900   49.0648800   -97.2098500  -83.1466400   -13.6067000  -53.8179200
    8424000000   -20.9625100  150.5542000   -88.5970300   24.9985500   -90.9702200   67.5381600   -13.5693800  -54.2553400
    8428000000   -21.3531100  153.6948000   -94.3784600  -55.7299700   -87.8825100   44.6540900   -13.5429800  -54.6660000
    8432000000   -21.7031500  157.1749000   -91.7615500 -103.2209000   -86.9308900   16.6493100   -13.5068500  -55.0951300
    8436000000   -21.9953200  161.0379000   -94.2973600  -71.0288200   -92.2818100 -167.8885000   -13.4726500  -55.5779700
    8440000000   -22.2364100  165.2507000   -92.5085600 -178.1737000   -93.6006800 -129.9881000   -13.4407600  -55.9884500
    8444000000   -22.3682000  169.6868000   -91.4294100   48.4919800  -105.4938000  103.3209000   -13.4066900  -56.4363400
    8448000000   -22.4303000  174.3028000   -96.1998100   94.2968000   -98.6714500 -156.1605000   -13.3736300  -56.9063800
    8452000000   -22.3827300  178.8877000   -91.3717500  -65.7171400   -92.8085800   90.4165000   -13.3407000  -57.3560700
    8456000000   -22.2708700 -176.6388000   -93.9177700  -29.8311000   -94.4429400  111.6844000   -13.3061400  -57.7789600
    8460000000   -22.0548000 -172.4973000  -100.9088000  137.2781000   -89.2920000  -46.0613100   -13.2663500  -58.2864000
    8464000000   -21.8052300 -168.5658000   -97.8395800 -163.5705000   -85.8883300  -56.9268200   -13.2366900  -58.6882200
    8468000000   -21.4769300 -165.0871000   -96.4315000 -121.2800000   -94.8808100   -0.1883895   -13.1979400  -59.1724300
    8472000000   -21.1174800 -161.9362000  -100.0360000   23.2106600   -94.9465100  -15.2542000   -13.1652000  -59.6267900
    8476000000   -20.7366900 -159.0728000   -92.5022000 -127.1639000   -94.3955300  -40.3912800   -13.1315900  -60.0838200
    8480000000   -20.3292900 -156.6517000   -94.0006600   57.0728900   -91.1416000  -91.7821700   -13.0980000  -60.5295100
    8484000000   -19.9059300 -154.5336000   -84.1444400  149.4395000   -97.3515600   10.0348800   -13.0708200  -61.0296400
    8488000000   -19.4788900 -152.7300000   -98.5865900  173.0854000   -91.7908100  102.3924000   -13.0340600  -61.4716900
    8492000000   -19.0566600 -151.2705000   -91.9254200    9.8635510   -92.5814500  174.5146000   -13.0026000  -61.9057800
    8496000000   -18.6436800 -150.1060000   -93.9995700  -87.7192900   -89.8158300 -140.9710000   -12.9738500  -62.4028100
    8500000000   -18.2426600 -149.0313000   -93.8309600   41.8911400   -88.0747900  -68.3594600   -12.9435800  -62.8396800
    8504000000   -17.8463200 -148.2284000   -91.7473800 -109.2062000  -100.0145000   -6.3916640   -12.9187700  -63.3295700
    8508000000   -17.4685900 -147.7269000  -104.1486000  -84.3815200   -97.2336600  -65.6662300   -12.8885800  -63.7612900
    8512000000   -17.0872500 -147.2752000   -90.0532800   78.9785500   -94.6117500  108.7884000   -12.8601900  -64.2583300
    8516000000   -16.7400600 -147.0070000   -86.2068600    9.0912370   -92.3260500 -124.2728000   -12.8283300  -64.6889300
    8520000000   -16.3988200 -146.8973000   -90.0896400  156.2046000   -89.0505200 -136.1822000   -12.7999700  -65.1988300
    8524000000   -16.0715600 -146.8901000   -94.1310400  -26.8918100   -88.7877300 -166.6808000   -12.7737500  -65.6330300
    8528000000   -15.7625100 -146.9250000  -102.0061000   16.4693100   -91.4634400 -130.7975000   -12.7457400  -66.0871800
    8532000000   -15.4589800 -147.0637000   -98.7113600  -30.5595000  -101.0384000  136.8094000   -12.7176500  -66.5588000
    8536000000   -15.1732200 -147.3417000   -97.5012600 -142.3364000   -92.1256400  179.0634000   -12.6832200  -67.0427300
    8540000000   -14.9008300 -147.6272000  -105.8634000   31.9451800  -107.8281000   23.2461800   -12.6541100  -67.5066300
    8544000000   -14.6271200 -147.9602000  -107.2088000  -71.9431600   -90.4788700  166.3120000   -12.6310600  -67.9336200
    8548000000   -14.3703700 -148.4233000   -92.6228400  -39.7464100   -93.7519400 -142.9283000   -12.6011900  -68.4084700
    8552000000   -14.1328200 -148.8912000   -88.1095200  -15.4461800  -101.6857000 -156.6210000   -12.5748200  -68.9187500
    8556000000   -13.8947000 -149.3527000   -87.7114600   89.7827500   -90.8394500  -39.8620400   -12.5464800  -69.3961700
    8560000000   -13.6762400 -149.8052000   -93.5679300  -32.5969900   -87.7134600   10.8175700   -12.5122400  -69.8479300
    8564000000   -13.4588300 -150.3987000  -100.5339000  100.4248000   -94.6671700  151.2829000   -12.4860300  -70.3315800
    8568000000   -13.2561600 -151.0036000   -88.1173300  -64.2754800   -92.1650500  -90.7827000   -12.4570600  -70.8042300
    8572000000   -13.0557200 -151.5661000   -89.1494800  106.3049000   -85.6697400 -155.9387000   -12.4247300  -71.3355400
    8576000000   -12.8657800 -152.2157000   -96.8294600  148.7645000   -90.4213600 -122.3739000   -12.3969500  -71.7981900
    8580000000   -12.6862000 -152.7928000   -91.8822600  161.6048000   -91.2365700  171.0078000   -12.3675700  -72.2941500
    8584000000   -12.4984300 -153.4413000   -94.5323600  150.1389000   -95.1727200   55.8703600   -12.3356500  -72.7521700
    8588000000   -12.3350800 -154.1256000   -89.9897800  179.5713000   -95.5033800  171.0558000   -12.3114700  -73.2344300
    8592000000   -12.1690900 -154.8148000   -94.9611200   18.6341200   -94.8747900 -132.3735000   -12.2834600  -73.7370500
    8596000000   -12.0137000 -155.5189000   -95.6560500 -156.3229000   -95.0854900   37.0096100   -12.2556700  -74.2366900
    8600000000   -11.8674900 -156.1909000   -93.3174400  -77.1724900   -89.8794300   67.9628000   -12.2294800  -74.7158600
    8604000000   -11.7210600 -156.9249000   -97.0399200  -23.7487500   -91.0467500   68.1530700   -12.2021800  -75.1984600
    8608000000   -11.5868200 -157.7070000   -94.0450600   -8.1483270   -91.0814700   15.1806800   -12.1788400  -75.6618400
    8612000000   -11.4518700 -158.4407000   -94.2294700 -112.1141000   -91.2325900   -9.4070680   -12.1604000  -76.1451700
    8616000000   -11.3317200 -159.2336000   -97.2251100   33.6051500   -91.8810100  174.2521000   -12.1370100  -76.6579700
    8620000000   -11.2079600 -159.9845000   -87.8649400  -88.9415300  -100.2084000  102.8995000   -12.1101100  -77.1163300
    8624000000   -11.0987600 -160.7565000   -88.3099700  -60.6586800   -88.6908700  146.3758000   -12.0862500  -77.6303600
    8628000000   -10.9910600 -161.5170000   -93.9577100  148.8126000   -94.1370800   -2.6688260   -12.0694900  -78.1521500
    8632000000   -10.8897500 -162.3022000   -98.3786200  144.6198000  -102.3234000 -146.4138000   -12.0473500  -78.6381700
    8636000000   -10.7867800 -163.0918000  -103.9289000   11.8623100   -94.2076500    5.4221640   -12.0197200  -79.1163600
    8640000000   -10.6966600 -163.9555000  -103.7715000 -112.0310000   -93.6176100 -157.1449000   -12.0029800  -79.5625900
    8644000000   -10.6007500 -164.7448000   -87.2860600 -108.1650000   -91.7417600 -105.8920000   -11.9767800  -80.1097100
    8648000000   -10.5252600 -165.5169000   -93.0275000   71.2898300   -93.2206900  144.0048000   -11.9445700  -80.6345200
    8652000000   -10.4442300 -166.3689000   -87.5744700  131.6815000   -92.6160100  160.3159000   -11.9216000  -81.0907300
    8656000000   -10.3629000 -167.1582000   -88.0042300  140.8250000   -98.0043800  -77.4363000   -11.8928400  -81.5820500
    8660000000   -10.2941200 -168.0071000   -86.4286000  119.4653000   -90.8121800  150.1039000   -11.8705800  -82.0892300
    8664000000   -10.2268400 -168.7969000   -96.9347200   93.2401600   -86.6245600 -168.5576000   -11.8445000  -82.5776200
    8668000000   -10.1572900 -169.6376000   -86.8108800 -160.6106000   -94.3247800 -102.6025000   -11.8190200  -83.1101900
    8672000000   -10.1003300 -170.4576000   -95.2490700    2.7190820   -90.9484000  172.5729000   -11.7959300  -83.5998500
    8676000000   -10.0499600 -171.3102000   -88.2604100  136.9478000   -86.7549100  159.1700000   -11.7720900  -84.1050000
    8680000000    -9.9953230 -172.0948000  -103.0233000  -30.5890600   -90.5503500  138.4029000   -11.7496600  -84.5893400
    8684000000    -9.9504130 -172.9360000   -89.8035500  140.3758000   -89.4312400 -104.3125000   -11.7250200  -85.1279300
    8688000000    -9.9034840 -173.7320000  -106.7354000  -35.1487300   -86.9930000 -148.0221000   -11.7056600  -85.6061400
    8692000000    -9.8685260 -174.5627000   -90.4151100 -150.3029000   -90.7290500  -99.8291200   -11.6851300  -86.1474400
    8696000000    -9.8350530 -175.3337000   -90.1540500 -162.2194000  -102.6799000  -19.6435900   -11.6613200  -86.6180100
    8700000000    -9.8039560 -176.1344000   -91.7610900  -12.8712200   -94.9791700 -110.0926000   -11.6367400  -87.1326400
    8704000000    -9.7734960 -176.9238000  -103.4616000 -151.6181000   -95.7958600 -134.3144000   -11.6158000  -87.6671500
    8708000000    -9.7479250 -177.7007000   -96.7482400  177.1593000   -89.3656800 -147.1865000   -11.5930200  -88.2010400
    8712000000    -9.7280920 -178.4775000  -109.8151000   68.8376200   -88.4580900 -111.0135000   -11.5679600  -88.7135600
    8716000000    -9.7098870 -179.2721000   -94.6324800  152.6979000   -87.2665600   76.1031600   -11.5488400  -89.2360300
    8720000000    -9.7002450  179.9605000   -91.5557600   87.5238500   -94.1033100  -26.2271300   -11.5325800  -89.7594300
    8724000000    -9.6906650  179.1818000   -92.4160700  -60.4378900  -100.2311000 -134.4588000   -11.5152900  -90.3033300
    8728000000    -9.6826320  178.4572000  -110.6480000 -163.0233000   -92.1122300  -97.8483800   -11.4953300  -90.7683100
    8732000000    -9.6788290  177.6709000   -92.8707400  155.0050000   -95.1051600 -167.1423000   -11.4775000  -91.3250400
    8736000000    -9.6871230  176.9437000   -88.9869600   39.0242100  -105.8536000  -34.3561500   -11.4579200  -91.8114800
    8740000000    -9.6934570  176.1706000   -90.1422900   81.6791700  -102.1652000   -2.1764100   -11.4338300  -92.3538700
    8744000000    -9.7008870  175.4795000   -86.9083800  140.4865000  -102.5074000 -179.8267000   -11.4152000  -92.8891300
    8748000000    -9.7103110  174.7319000   -90.4436400  122.9320000   -90.6885100  103.0178000   -11.3997500  -93.3913700
    8752000000    -9.7250600  173.9946000   -94.2651100 -174.5199000   -92.7747200   79.8551800   -11.3801900  -93.9319500
    8756000000    -9.7413810  173.2650000   -88.7360100 -136.2092000   -89.1571000   22.9099700   -11.3635600  -94.4874700
    8760000000    -9.7607170  172.5550000   -90.3462500    1.9159000   -88.5040000 -120.6009000   -11.3380000  -95.0235900
    8764000000    -9.7911460  171.8484000   -85.8886300   72.1484600   -89.1775600  163.7180000   -11.3229200  -95.5066000
    8768000000    -9.8171730  171.1528000   -98.9628700  137.6626000   -94.5947600   69.2381400   -11.3002100  -96.0724000
    8772000000    -9.8479130  170.4214000   -99.4744900 -154.6378000   -87.1829600   98.0861100   -11.2868900  -96.5887200
    8776000000    -9.8756490  169.7551000   -94.1195000  123.7183000   -86.3163700   34.1079100   -11.2615000  -97.1715500
    8780000000    -9.9157270  169.0845000   -89.0118000  -99.9646800   -91.0120500  169.8283000   -11.2502000  -97.7080600
    8784000000    -9.9486360  168.4441000   -95.9184300  -82.6904000  -101.3981000  167.6592000   -11.2255200  -98.2309800
    8788000000    -9.9937260  167.7813000  -103.1366000   57.2882700  -102.0214000   75.7659500   -11.2126900  -98.7587700
    8792000000   -10.0405400  167.1489000   -95.0059100  -87.2233600   -89.6897200  126.0232000   -11.1920200  -99.3131600
    8796000000   -10.0886900  166.4901000   -90.5977600 -167.0234000  -102.0937000 -152.6894000   -11.1806900  -99.8243300
    8800000000   -10.1424000  165.8906000   -90.8388400    7.2536650   -92.5358300   99.5401200   -11.1642500 -100.3206000
    8804000000   -10.1954500  165.3075000   -98.5052900   72.0687300   -91.8527500 -137.8874000   -11.1513100 -100.8464000
    8808000000   -10.2502700  164.6912000   -87.0626100  130.8840000   -90.5223000 -169.8447000   -11.1305200 -101.4139000
    8812000000   -10.3151000  164.1545000   -88.7949500  -96.4749500   -89.0096200  -85.2724200   -11.1178800 -101.8882000
    8816000000   -10.3825400  163.5791000   -91.2286000   98.9688900   -89.2548800  163.1975000   -11.0964900 -102.4362000
    8820000000   -10.4477300  163.0568000  -107.9203000  -19.0231000   -91.9853100  112.7266000   -11.0810000 -102.9412000
    8824000000   -10.5256200  162.5534000   -86.9283200  163.2387000   -93.7477200  -20.2831000   -11.0660300 -103.4986000
    8828000000   -10.6060200  162.0632000   -91.4855000 -172.1657000   -96.9606400  123.0581000   -11.0446900 -104.0176000
    8832000000   -10.6829900  161.5953000   -89.4119300   62.9948800   -87.9554600 -106.0030000   -11.0224300 -104.6012000
    8836000000   -10.7712300  161.1625000   -90.4465800   92.9146300   -92.9979100  -42.3799100   -11.0101600 -105.1428000
    8840000000   -10.8605400  160.7845000   -86.7639900   53.1210900   -90.3714100 -102.9732000    -7.7181540  -30.9703500
    8844000000   -10.9512300  160.4046000   -92.6957900 -161.2861000   -86.9891700  -52.1680000    -7.7329950  -40.9448100
    8848000000   -11.0478100  160.0804000   -85.3008700   15.9221500   -90.2629700  -11.5437300    -7.7564840  -50.8070000
    8852000000   -11.1451800  159.7115000   -93.3924300  -55.4939200   -90.8847400 -106.7504000    -7.7766970  -60.6471800
    8856000000   -11.2411700  159.4442000   -83.7691700   22.6471000   -96.1528100  -65.1493100    -7.8010230  -70.4537600
    8860000000   -11.3487900  159.1344000   -81.3686800   31.7477900   -95.5488500   -0.5104666    -7.8314670  -80.2451900
    8864000000   -11.4611100  158.9194000   -93.3685200  177.7588000   -91.6652000  -71.9436400    -7.8689670  -90.0042400
    8868000000   -11.5638800  158.7294000   -80.7831000   73.9051300   -84.3294700   28.9698900    -7.9061560  -99.7944500
    8872000000   -11.6734700  158.5387000   -87.4575700  -66.8734900   -85.2112700   36.0788000    -7.9539820 -109.6523000
    8876000000   -11.7895900  158.3791000   -87.0285800  -69.0071300   -92.1627300   75.5437800    -7.9945070 -119.5388000
    8880000000   -11.9080700  158.3128000   -84.3473900   20.8034600   -97.6475100  153.6143000    -8.0473370 -129.5342000
    8884000000   -12.0241400  158.2552000   -88.9052600   90.3839800   -88.4439900  175.6688000    -8.0917500 -139.6771000
    8888000000   -12.1443600  158.2075000   -90.4540600   96.6508600   -87.6990500  -21.6486100    -8.1386000 -150.0094000
    8892000000   -12.2669500  158.2216000   -86.6254300 -131.2161000   -91.5760800  147.7382000    -8.1864460 -160.5869000
    8896000000   -12.3866200  158.2923000   -86.7640100 -120.8843000   -91.3419800  162.1232000    -8.2261770 -171.4053000
    8900000000   -12.5097100  158.3949000   -91.7467800 -168.6622000   -89.2152800  165.1416000    -8.2575900  177.4590000
    8904000000   -12.6308800  158.6065000   -80.7895400 -136.8397000   -98.4882800   -8.3269780    -8.2914120  166.0941000
    8908000000   -12.7518100  158.8071000   -80.6073400  158.1420000  -101.5115000  -38.8517300    -8.3167510  154.4934000
    8912000000   -12.8685900  159.0614000   -85.1031300 -174.5152000   -89.4638200 -129.6403000    -8.3391250  142.6990000
    8916000000   -12.9895900  159.3897000   -94.8505000  148.5407000  -110.5602000  -92.8157800    -8.3578000  130.7707000
    8920000000   -13.1056600  159.7994000   -90.1693300 -117.2932000   -98.6867400  119.9551000    -8.3616770  118.6508000
    8924000000   -13.2156500  160.2303000   -92.1336400  119.2148000   -88.3963700  -29.5917900    -8.3577460  106.4816000
    8928000000   -13.3299600  160.7732000   -99.7332700   22.3081500   -90.4372300   62.4790000    -8.3485590   94.3179600
    8932000000   -13.4326300  161.2753000   -82.1658200   30.7220600   -94.2628100 -178.0336000    -8.3243680   82.1960800
    8936000000   -13.5379700  161.9475000   -94.3791500  103.5183000   -96.7199600  143.3494000    -8.3002370   70.1508600
    8940000000   -13.6425300  162.6328000   -86.9126600  122.0206000   -89.2019700   34.5155400    -8.2626720   58.2468600
    8944000000   -13.7299600  163.3520000   -90.3941200 -151.1831000   -92.6411000  -59.1276400    -8.2178340   46.5272100
    8948000000   -13.8203500  164.2235000   -87.8925700   77.2098700   -87.8248600  164.4093000    -8.1714700   35.0563100
    8952000000   -13.8959100  165.0535000   -89.5357400  109.5997000   -98.7159000   74.0503500    -8.1225780   23.8549900
    8956000000   -13.9647700  165.9747000   -84.2693000 -164.6992000   -83.0508900   52.2415900    -8.0724740   12.9865200
    8960000000   -14.0274700  166.8940000   -83.5756100 -131.9510000   -88.2352000   66.6456100    -8.0175430    2.4021020
    8964000000   -14.0809300  167.9111000   -87.7557800  -82.1239900   -90.3975800    2.9255810    -7.9652720   -7.8389390
    8968000000   -14.1207500  169.0049000   -89.3911900 -105.4348000  -102.2399000 -128.6084000    -7.9135660  -17.7473900
    8972000000   -14.1517000  170.0188000   -89.7065400  122.3966000   -93.7942400 -106.5139000    -7.8629260  -27.3495600
    8976000000   -14.1669000  171.0478000  -101.9004000    0.1037386  -100.2650000   55.2534500    -7.8190260  -36.6178600
    8980000000   -14.1764200  172.1502000   -95.9482600  147.6177000   -92.8714400  172.0725000    -7.7787880  -45.6766100
    8984000000   -14.1769800  173.2946000   -92.4886700  130.8894000   -93.5971100 -121.8113000    -7.7395790  -54.5158100
    8988000000   -14.1617900  174.3791000   -91.6374400 -163.0403000   -82.5313900 -137.5168000    -7.7013960  -63.1969500
    8992000000   -14.1279200  175.4258000   -91.1400000  104.5691000  -100.3914000 -104.9528000    -7.6728940  -71.7642000
    8996000000   -14.0897600  176.5496000   -86.6417500 -164.9958000   -94.7464100 -153.4046000    -7.6429640  -80.2917300
    9000000000   -14.0376400  177.5756000   -94.8311300  -32.4791800   -90.2297900 -122.0613000    -7.6237110  -88.8075400
